p td 21 63
3 2
4 3
5 2
5 3
6 5
6 4
7 1
8 2
8 1
8 6
8 4
9 3
9 1
10 5
10 1
10 3
11 2
11 9
11 5
11 10
11 6
12 10
12 5
12 11
12 8
12 4
13 10
13 3
14 13
14 4
14 6
14 5
15 11
15 10
15 2
16 13
16 6
16 12
17 16
17 4
17 9
17 6
17 10
17 13
17 5
18 3
18 17
19 4
19 7
19 3
19 5
19 2
19 15
19 11
20 2
20 5
20 19
20 6
21 18
21 2
21 11
21 14
21 8
